
******************************************************************************
This program contains Ipopt, a library for large-scale nonlinear optimization.
 Ipopt is released as open source code under the Eclipse Public License (EPL).
         For more information visit http://projects.coin-or.org/Ipopt
******************************************************************************

This is Ipopt version 3.12.6, running with linear solver ma57.

Number of nonzeros in equality constraint Jacobian...:        0
Number of nonzeros in inequality constraint Jacobian.:        0
Number of nonzeros in Lagrangian Hessian.............:     8999

Total number of variables............................:     3000
                     variables with only lower bounds:        0
                variables with lower and upper bounds:        0
                     variables with only upper bounds:        0
Total number of equality constraints.................:        0
Total number of inequality constraints...............:        0
        inequality constraints with only lower bounds:        0
   inequality constraints with lower and upper bounds:        0
        inequality constraints with only upper bounds:        0

iter    objective    inf_pr   inf_du lg(mu)  ||d||  lg(rg) alpha_du alpha_pr  ls
   0  2.8501000e+04 0.00e+00 2.80e+01  -1.0 0.00e+00    -  0.00e+00 0.00e+00   0
   1  2.0741648e+04 0.00e+00 2.00e+01  -1.0 1.88e-01   2.0 1.00e+00 1.00e+00f  1
   2  1.2812861e+04 0.00e+00 1.15e+01  -1.0 2.77e-01   1.5 1.00e+00 1.00e+00f  1
   3  7.0256853e+03 0.00e+00 5.56e+00  -1.0 2.97e-01   1.0 1.00e+00 1.00e+00f  1
   4  2.6388435e+03 0.00e+00 3.18e+00  -1.0 1.76e+00    -  1.00e+00 1.00e+00f  1
   5  2.3982960e+02 0.00e+00 8.71e-01  -1.0 1.41e+00    -  1.00e+00 1.00e+00f  1
   6  1.0000555e+00 0.00e+00 4.50e-04  -1.7 4.48e-01    -  1.00e+00 1.00e+00f  1
   7  1.0000000e+00 0.00e+00 5.17e-20  -5.7 2.25e-04    -  1.00e+00 1.00e+00f  1

Number of Iterations....: 7

                                   (scaled)                 (unscaled)
Objective...............:   1.0000000000000000e+00    1.0000000000000000e+00
Dual infeasibility......:   5.1669009782512321e-20    5.1669009782512321e-20
Constraint violation....:   0.0000000000000000e+00    0.0000000000000000e+00
Complementarity.........:   0.0000000000000000e+00    0.0000000000000000e+00
Overall NLP error.......:   5.1669009782512321e-20    5.1669009782512321e-20


Number of objective function evaluations             = 8
Number of objective gradient evaluations             = 8
Number of equality constraint evaluations            = 0
Number of inequality constraint evaluations          = 0
Number of equality constraint Jacobian evaluations   = 0
Number of inequality constraint Jacobian evaluations = 0
Number of Lagrangian Hessian evaluations             = 7
Total CPU secs in IPOPT (w/o function evaluations)   =      0.023
Total CPU secs in NLP function evaluations           =      0.003

EXIT: Optimal Solution Found.

 ** SUBROUTINE CUTEST_csetup: Warning. The problem has no general constraints. 
 ** Other tools may be preferable ** 

************************ CUTEst statistics ************************


 Package used            :  IPOPT
 Problem                 :  DIXMAANA  
 # variables             =            3000
 # constraints           =               0
 # objective functions   =        0.1700000E+02
 # objective gradients   =        0.9000000E+01
 # objective Hessians    =        0.8000000E+01
 # Hessian-vector prdct  =        0.0000000E+00
 # constraints functions =        0.0000000E+00
 # constraints gradients =        0.0000000E+00
 # constraints Hessians  =        0.0000000E+00
 Exit code               =               0
 Final f                 =   0.1000000E+01
 Set up time             =            0.05 seconds
 Solve time              =            0.11 seconds


******************************************************************

System Time =       0.0280000009 s.
